etc/upTests/_enums_in_types/int_to_enum/0003.eprime
language ESSENCE' 1.0

find valid_AsReln_RelationIntMatrix2:
        matrix indexed by [int(1..3), int(1..2)] of bool
such that
    forAll v__0 : int(1..3)
        . (sum v__1 : int(1..3)
               . (sum v__2 : int(1..2)
                      . valid_AsReln_RelationIntMatrix2[v__1, v__2] * (v__0 = v__1)))
          =
          1
