etc/upTests/_enums_in_types/int_to_enum/0003.eprime.solution
language ESSENCE' 1.0
$ minion Nodes: 4
$ minion TotalTime: 0.000598
$ Savile Row TotalTime: 0.181
letting valid_AsReln_RelationIntMatrix2 be [[false, true;int(1..2)], 
[false, true;int(1..2)], 
[false, true;int(1..2)];int(1..3)]
